p cnf 120 152
-3  1  2  0
5  -3  4  0
11  9  10  0
19  17  18  0
-21  19  -20  0
-23  21  22  0
-27  25  -26  0
29  -27  28  0
-31  29  -30  0
43  -41  -42  0
-49  -47  48  0
53  -51  52  0
59  57  58  0
-63  61  -62  0
67  65  -66  0
-69  -67  -68  0
73  -71  72  0
75  -73  -74  0
-77  75  -76  0
79  77  -78  0
81  -79  80  0
83  -81  82  0
-85  83  -84  0
-87  -85  -86  0
-89  87  88  0
97  -95  -96  0
-99  -97  -98  0
-101  -99  -100  0
107  105  106  0
-109  -107  108  0
-111  -109  110  0
113  111  -112  0
-115  113  114  0
-117  115  -116  0
-119  117  118  0
4  3  2  0
-4  3  -1  0
4  1  2  0
6  -5  -4  0
6  -3  -4  0
-8  7  -6  0
8  -7  -5  0
-8  5  -6  0
-12  -11  10  0
-14  13  -12  0
-16  -15  14  0
16  15  -13  0
-18  17  -16  0
18  -17  15  0
-18  15  -16  0
-20  19  -18  0
-20  19  -17  0
-20  17  18  0
22  -19  20  0
24  23  -22  0
24  -23  21  0
-24  21  22  0
-26  -25  -24  0
26  25  23  0
26  -23  24  0
28  -27  26  0
-30  -29  28  0
30  -27  -28  0
32  31  30  0
-32  31  29  0
32  29  -30  0
34  -33  -32  0
34  33  31  0
36  -35  34  0
-36  -35  33  0
36  33  -34  0
-38  -37  -35  0
-40  -39  38  0
-40  -37  38  0
42  41  -40  0
-42  -39  40  0
-44  -43  -41  0
44  41  42  0
-46  45  44  0
-46  -45  -43  0
46  43  -44  0
48  47  46  0
48  47  -45  0
50  -49  -48  0
-50  49  47  0
-52  51  49  0
54  53  -51  0
-58  57  56  0
-58  57  55  0
-58  55  56  0
60  -59  58  0
-60  59  -57  0
-60  -57  -58  0
62  -61  60  0
-64  -63  -61  0
64  61  62  0
66  65  64  0
66  -65  63  0
-68  -67  -65  0
70  -69  -68  0
-70  69  -67  0
70  -67  -68  0
72  -71  -70  0
72  71  -69  0
72  -69  70  0
74  73  -71  0
-74  71  -72  0
-76  -75  -74  0
-76  -75  -73  0
-76  73  74  0
80  -79  -77  0
80  -77  78  0
82  81  -80  0
-82  81  -79  0
84  81  82  0
86  85  -84  0
88  -87  86  0
-88  -85  86  0
90  89  88  0
90  87  -88  0
-92  91  89  0
-92  89  -90  0
94  -93  -91  0
96  95  93  0
-96  93  94  0
-98  97  96  0
98  -97  -95  0
-98  -95  96  0
100  99  98  0
-100  99  97  0
102  101  -100  0
-102  101  -99  0
-104  103  -102  0
-104  101  102  0
106  -105  103  0
-106  103  -104  0
108  -107  106  0
-108  -107  -105  0
-108  -105  106  0
110  109  -107  0
-110  107  108  0
-112  -111  -110  0
112  111  109  0
112  -109  -110  0
-114  113  -112  0
-114  113  111  0
-114  -111  -112  0
-116  -115  -113  0
-118  -117  -115  0
-118  -115  116  0
120  119  -117  0
-120  117  -118  0
